N = 13;
H = 5;
T = 2;

avail = array3d(1..N, 1..H, 1..T, [9, 2, 4, 4, 4, 9, 10, 10, 10, 8, 1, 6, 1, 4, 4, 6, 7, 7, 7, 1, 1, 8, 6, 7, 7, 2, 10, 6, 2, 6, 10, 3, 3, 7, 2, 3, 5, 10, 3, 2, 4, 2, 10, 3, 10, 1, 10, 7, 6, 0, 5, 7, 0, 1, 7, 6, 10, 5, 5, 4, 2, 4, 1, 3, 8, 2, 1, 0, 2, 4, 4, 4, 5, 6, 8, 0, 1, 1, 4, 8, 1, 4, 4, 0, 3, 1, 8, 8, 10, 5, 5, 10, 7, 3, 6, 9, 8, 0, 8, 10, 2, 0, 3, 5, 4, 2, 6, 4, 8, 5, 7, 0, 0, 3, 8, 4, 6, 1, 2, 2, 6, 9, 8, 6, 1, 0, 8, 0, 3, 6]);

r = array2d(1..H, 1..T, [0, 2, 2, 2, 5, 6, 4, 4, 2, 6]);
